c FILE /home/rafael/Documents/HappySet/MIHS/inputs/happygen/output/graph_d_regular_k5_p0.5_v50_20241127_082636.txt
c SOURCE This is a d-regular graph formed for the happy graph colouring problem.
c DESCRIPTION It was generated using the problem generator of Rhyd Lewis
c
c GRAPH STATS
c Seed                             = -1635485156
c Number of Nodes                  = 50
c Number of colours k              = 5
c Number of pre-assignments        = 25
c Degree of all vertices           = 6
c Density                          = 0.122449
c 
c The degrees of nodes 1 to 50, respectively, are as follows 
c [6, 6, 6, 6, 6, 6, 6, 6, 6, 6, 6, 6, 6, 6, 6, 6, 6, 6, 6, 6, 6, 6, 6, 6, 6, 6, 
c  6, 6, 6, 6, 6, 6, 6, 6, 6, 6, 6, 6, 6, 6, 6, 6, 6, 6, 6, 6, 6, 6, 6, 6] 
c  
p edge 50 150 5
e 1 6
e 1 19
e 1 28
e 1 30
e 1 32
e 1 47
e 2 9
e 2 12
e 2 24
e 2 27
e 2 35
e 2 37
e 3 4
e 3 19
e 3 24
e 3 26
e 3 40
e 3 45
e 4 12
e 4 20
e 4 32
e 4 34
e 4 47
e 5 13
e 5 18
e 5 19
e 5 36
e 5 37
e 5 48
e 6 28
e 6 34
e 6 41
e 6 44
e 6 45
e 7 11
e 7 15
e 7 31
e 7 37
e 7 38
e 7 45
e 8 18
e 8 20
e 8 29
e 8 37
e 8 40
e 8 42
e 9 18
e 9 19
e 9 33
e 9 44
e 9 45
e 10 23
e 10 31
e 10 32
e 10 34
e 10 36
e 10 42
e 11 26
e 11 38
e 11 41
e 11 44
e 11 46
e 12 23
e 12 31
e 12 34
e 12 46
e 13 22
e 13 23
e 13 26
e 13 27
e 13 46
e 14 26
e 14 28
e 14 31
e 14 36
e 14 39
e 14 41
e 15 21
e 15 22
e 15 30
e 15 37
e 15 50
e 16 20
e 16 39
e 16 43
e 16 47
e 16 49
e 16 50
e 17 30
e 17 33
e 17 40
e 17 42
e 17 45
e 17 50
e 18 25
e 18 47
e 18 50
e 19 35
e 19 39
e 20 27
e 20 45
e 20 50
e 21 27
e 21 28
e 21 29
e 21 39
e 21 43
e 22 28
e 22 33
e 22 47
e 22 48
e 23 30
e 23 33
e 23 49
e 24 30
e 24 35
e 24 40
e 24 42
e 25 27
e 25 33
e 25 43
e 25 46
e 25 48
e 26 49
e 26 50
e 27 35
e 28 42
e 29 31
e 29 38
e 29 41
e 29 49
e 30 49
e 31 48
e 32 39
e 32 46
e 32 48
e 33 48
e 34 44
e 34 49
e 35 37
e 35 43
e 36 38
e 36 39
e 36 43
e 38 42
e 38 43
e 40 44
e 40 47
e 41 44
e 41 46
n 2 5
n 3 3
n 5 5
n 6 5
n 7 5
n 11 5
n 12 5
n 13 5
n 20 2
n 25 2
n 28 5
n 29 5
n 30 4
n 32 1
n 33 2
n 34 5
n 35 5
n 37 5
n 38 5
n 39 1
n 40 3
n 41 5
n 42 5
n 47 3
n 50 2
